(set-info :Origin "This instance was generated by: BanditFuzz-- an RL fuzzer for SMT solvers" )
(set-info :Author "Joe Scott, Fed Mora, Vijay Ganesh" )
(set-info :Contact "Joe Scott, joseph.scott@uwaterloo.ca")
(set-logic QF_BV)
(declare-const bool_0 Bool)
(declare-const bool_1 Bool)
(declare-const bool_2 Bool)
(declare-const bool_3 Bool)
(declare-const bool_4 Bool)
(declare-const bv_0 (_ BitVec 32))
(declare-const bv_1 (_ BitVec 32))
(declare-const bv_2 (_ BitVec 32))
(declare-const bv_3 (_ BitVec 32))
(declare-const bv_4 (_ BitVec 32))
(assert (bvugt (bvsub (bvmul bv_2 #xe572fe4b ) (bvor bv_4 #xcad2d223 )) (bvlshr (bvnand bv_1 bv_4) (bvor bv_0 bv_4))))
(assert (and (xor (bvugt bv_1 bv_1) (or bool_1 bool_1)) (not (=> bool_0 bool_3))))
(assert (bvslt (bvxor (bvadd #xb9196087  bv_4) (bvmul bv_0 #x36bd1d14 )) (bvnand (bvshl #x90472384  #x80919f0e ) (bvsrem #xf4f18afe  bv_0))))
(assert (not (bvuge (bvsmod #x8bd944d7  #xc6e4adec ) (bvsrem #xa2d9d384  #x36f22a13 ))))
(assert (bvslt (bvsrem (bvsrem bv_3 #x9eb823a2 ) (bvxnor bv_1 #xfaeecdd8 )) (bvurem (bvxor #xc1be7eb8  bv_2) (bvnor #x04760a5e  bv_1))))
(check-sat)
(exit)
